--- Job zonal_with_locational_instrument.gms Start 12/21/21 20:08:32 30.3.0 rc5da09e WEX-WEI x86 64bit/MS Windows
--- GAMS Parameters defined
    Input C:\Users\a.eicke\Documents\Locational-investment-signals\Three node models\zonal_with_locational_instrument.gms
    PageSize 0
    ScrDir C:\Users\a.eicke\Documents\Locational-investment-signals\Three node models\225a\
    SysDir C:\GAMS\win64\30.3\
    LogOption 3
    ErrMsg 1
    ErrorLog 99
    IDE 1
    LstTitleLeftAligned 1
GAMS 30.3.0   Copyright (C) 1987-2020 GAMS Development. All rights reserved
Licensee: Small MUD - 5 User License                     S190305:0326AO-WIN
          Hertie School of Governance GmbH, Governance of DigitalizaDC14808
--- Starting compilation
--- zonal_with_locational_instrument.gms(84) 3 Mb
--- GDXin=C:\Users\a.eicke\Documents\Locational-investment-signals\Three node models\in.gdx
--- zonal_with_locational_instrument.gms(316) 3 Mb
--- Starting execution: elapsed 0:00:00.019
--- zonal_with_locational_instrument.gms(286) 4 Mb
--- Generating MIQCP model LOCI
--- zonal_with_locational_instrument.gms(289) 7 Mb
---   2,339 rows  1,781 columns  6,695 non-zeroes
---   322 nl-code  56 nl-non-zeroes
---   472 discrete-columns
--- zonal_with_locational_instrument.gms(289) 5 Mb
--- Executing CPLEX: elapsed 0:00:00.055

IBM ILOG CPLEX   30.3.0 rc5da09e Released Mar 06, 2020 WEI x86 64bit/MS Window
--- GAMS/Cplex licensed for continuous and discrete problems.
Cplex 12.10.0.0

The search will stop after 25000000 nodes.
Reading data...
Starting Cplex...
Space for names approximately 0.12 Mb
Use option 'names no' to turn use of names off
Version identifier: 12.10.0.0 | 2019-11-26 | 843d4de2ae
CPXPARAM_Advance                                 0
CPXPARAM_Threads                                 1
CPXPARAM_Parallel                                1
CPXPARAM_MIP_Display                             4
CPXPARAM_Simplex_Limits_Iterations               2000000000
CPXPARAM_MIP_Limits_Nodes                        25000000
CPXPARAM_TimeLimit                               40000
CPXPARAM_Tune_TimeLimit                          8000
CPXPARAM_MIP_Tolerances_AbsMIPGap                0
CPXPARAM_MIP_Tolerances_MIPGap                   0.0050000000000000001
CPXPARAM_WorkDir                                 "C:\Users\a.eicke\Documents\Locational-investment-signals\Three node models\225a\"
Tried aggregator 2 times.
MIQP Presolve eliminated 782 rows and 230 columns.
MIQP Presolve modified 652 coefficients.
Aggregator did 49 substitutions.
Reduced MIQP has 1508 rows, 1493 columns, and 4456 nonzeros.
Reduced MIQP has 408 binaries, 0 generals, 0 SOSs, and 0 indicators.
Reduced MIQP objective Q matrix has 104 nonzeros.
Presolve time = 0.02 sec. (4.17 ticks)
Probing fixed 0 vars, tightened 145 bounds.
Probing time = 0.00 sec. (1.40 ticks)
Tried aggregator 1 time.
MIQP Presolve modified 159 coefficients.
Reduced MIQP has 1508 rows, 1493 columns, and 4456 nonzeros.
Reduced MIQP has 408 binaries, 0 generals, 0 SOSs, and 0 indicators.
Reduced MIQP objective Q matrix has 104 nonzeros.
Presolve time = 0.00 sec. (1.96 ticks)
Classifier predicts products in MIQP should be linearized.
Probing fixed 0 vars, tightened 5 bounds.
Probing time = 0.00 sec. (1.22 ticks)
Clique table members: 352.
MIP emphasis: balance optimality and feasibility.
MIP search method: dynamic search.
Parallel mode: none, using 1 thread.
Number of nonzeros in lower triangle of Q = 24
Using Approximate Minimum Degree ordering
Total time for automatic ordering = 0.00 sec. (0.00 ticks)
Summary statistics for factor of Q:
  Rows in Factor            = 56
  Integer space required    = 56
  Total non-zeros in factor = 80
  Total FP ops to factor    = 128
Tried aggregator 1 time.
Aggregator did 408 substitutions.
Number of nonzeros in lower triangle of Q = 24
Using Approximate Minimum Degree ordering
Total time for automatic ordering = 0.00 sec. (0.00 ticks)
Summary statistics for factor of Q:
  Rows in Factor            = 56
  Integer space required    = 56
  Total non-zeros in factor = 80
  Total FP ops to factor    = 128
Reduced QP has 1100 rows, 1085 columns, and 3640 nonzeros.
Reduced QP objective Q matrix has 104 nonzeros.
Presolve time = 0.00 sec. (1.17 ticks)
Tried aggregator 1 time.
QP Presolve eliminated 24 rows and 24 columns.
QP Presolve added 0 rows and 56 columns.
Reduced QP has 1132 rows, 1117 columns, and 3728 nonzeros.
Reduced QP objective Q matrix has 32 nonzeros.
Presolve time = 0.00 sec. (0.58 ticks)
Parallel mode: none, using 1 thread for barrier

***NOTE: Found 9 dense columns.

Number of nonzeros in lower triangle of A*A' = 4405
Using Approximate Minimum Degree ordering
Total time for automatic ordering = 0.00 sec. (0.52 ticks)
Summary statistics for Cholesky factor:
  Rows in Factor            = 1141
  Integer space required    = 2721
  Total non-zeros in factor = 11884
  Total FP ops to factor    = 167074
 Itn      Primal Obj        Dual Obj  Prim Inf Upper Inf  Dual Inf          
   0   3.3885568e+06   3.8150363e+11  4.48e+05  2.66e+05  8.02e+05
   1   3.9725481e+06   3.1937748e+11  5.97e+05  4.62e+05  6.71e+05
   2   4.5917011e+06   3.0310234e+11  7.78e+05  6.23e+05  6.37e+05
   3   4.0008321e+06   2.7191875e+11  8.62e+05  5.92e+05  5.72e+05
   4   1.8780580e+06   1.7555622e+11  5.55e+05  3.81e+05  3.69e+05
   5  -5.8038916e+05   9.1118373e+10  2.86e+05  1.96e+05  1.90e+05
   6  -1.5263827e+06   1.5235146e+10  4.65e+04  3.20e+04  3.09e+04
   7  -1.4059716e+06   4.3934599e+09  1.25e+04  8.59e+03  8.30e+03
   8  -1.0763827e+06   1.6573983e+08  4.24e+02  2.91e+02  2.82e+02
   9  -3.9966366e+05   4.4088621e+07  1.01e+02  6.91e+01  6.68e+01
  10  -3.2921746e+05   3.6426924e+07  7.16e+01  4.91e+01  4.76e+01
  11  -6.0353660e+04   8.8154150e+06  1.01e+01  6.91e+00  6.70e+00
  12   8.5419116e+04   1.5143910e+06  9.82e-01  6.74e-01  6.54e-01
  13   1.2456052e+05   9.6253096e+05  4.81e-01  3.30e-01  3.20e-01
  14   1.7560324e+05   3.6010786e+05  8.84e-02  6.07e-02  5.88e-02
  15   1.9815281e+05   2.6577201e+05  2.80e-02  1.93e-02  1.87e-02
  16   2.0391792e+05   2.3708943e+05  1.16e-02  7.93e-03  7.70e-03
  17   2.0527295e+05   2.1911092e+05  6.00e-04  4.12e-04  3.99e-04
  18   2.0761616e+05   2.1002076e+05  9.61e-05  6.59e-05  6.40e-05
  19   2.0795631e+05   2.0826980e+05  1.23e-05  8.44e-06  8.18e-06
  20   2.0800055e+05   2.0803799e+05  1.46e-06  9.99e-07  9.67e-07
  21   2.0800864e+05   2.0801441e+05  2.32e-07  1.55e-07  1.48e-07
  22   2.0801008e+05   2.0801079e+05  4.35e-08  2.76e-08  1.82e-08
  23   2.0801025e+05   2.0801035e+05  1.98e-08  1.13e-08  2.48e-09
  24   2.0801028e+05   2.0801029e+05  1.42e-08  9.41e-09  3.11e-10
  25   2.0801028e+05   2.0801028e+05  1.94e-08  1.18e-08  7.13e-12
  26   2.0801028e+05   2.0801028e+05  2.12e-08  1.03e-08  5.22e-12
Barrier time = 0.06 sec. (23.00 ticks)

Total time on 1 threads = 0.06 sec. (24.17 ticks)
Barrier time = 0.06 sec. (23.02 ticks)

QP crossover.
  Primal and Dual:  Fixing 431 variables.
  Primal:  Pushed 219, exchanged 124.
  Dual  :  Pushed 50, exchanged 104.
Total crossover time = 0.02 sec. (10.95 ticks)

Total time on 1 threads = 0.08 sec. (35.26 ticks)
Root relaxation solution time = 0.08 sec. (35.27 ticks)

        Nodes                                         Cuts/
   Node  Left     Objective  IInf  Best Integer    Best Bound    ItCnt     Gap

      0     0   208010.2816   204                 208010.2816       26         
      0     0   208010.2816   204                   Cuts: 403      607         
      0     0   208010.2816   204                    Cuts: 90      695         
      0     0   208010.2816   204                    Cuts: 35      739         
      0     0   208010.2816   204                    Cuts: 12      775         
*     0+    0                       200586.3513   208010.2816             3.70%
Found incumbent of value 200586.351280 after 0.59 sec. (272.73 ticks)
      0     2   208010.2816   191   200586.3513   208010.2816      775    3.70%
Elapsed time = 0.59 sec. (275.71 ticks, tree = 0.01 MB, solutions = 1)
    122    38        cutoff         200586.3513   208010.2816     3385    3.70%
                                                  Impl Bds: 4                  
    170    18   208009.8167   150   200586.3513   208009.8168     8053    3.70%
    220    26   206864.7968   125   200586.3513   208009.8167    12194    3.70%
                                                  Impl Bds: 5                  
*   260+   49                       203200.7097   208009.8167             2.37%
                                                  Impl Bds: 2                  
Found incumbent of value 203200.709746 after 2.39 sec. (1101.39 ticks)
    290    61   204357.6405    79   203200.7097   208009.8167    15482    2.37%
                                                  Impl Bds: 1                  
    370   123   204334.5196   134   203200.7097   208009.8167    16572    2.37%
                                                  Impl Bds: 2                  
    484   217   205729.5396   107   203200.7097   208009.8167    17428    2.37%
                                                  Impl Bds: 1                  
    598   293   205740.0908   150   203200.7097   208009.8167    19329    2.37%
                                                  Impl Bds: 2                  
    700   391   207891.9553    95   203200.7097   208009.8167    20112    2.37%
                                                  Impl Bds: 1                  
    789   452   207994.8031   120   203200.7097   208009.7147    23282    2.37%
                                                  Impl Bds: 2                  
*   970+  612                       203250.6814   208009.7147             2.34%
                                                  Impl Bds: 1                  
Found incumbent of value 203250.681437 after 6.86 sec. (3548.31 ticks)
    970   614   207579.9466   110   203250.6814   208009.7147    24263    2.34%
Elapsed time = 7.36 sec. (3835.14 ticks, tree = 0.50 MB, solutions = 3)
*   972+  379                       205961.5265   208009.7147             0.99%
Found incumbent of value 205961.526488 after 7.66 sec. (3974.76 ticks)
*  1072+  465                       206095.1157   208009.6841             0.93%
Found incumbent of value 206095.115745 after 8.33 sec. (4337.55 ticks)

Performing restart 1

Repeating presolve.
Tried aggregator 1 time.
MIQP Presolve modified 5 coefficients.
Reduced MIQP has 1508 rows, 1493 columns, and 4456 nonzeros.
Reduced MIQP has 408 binaries, 0 generals, 0 SOSs, and 0 indicators.
Reduced MIQP objective Q matrix has 104 nonzeros.
Presolve time = 0.01 sec. (1.91 ticks)
Tried aggregator 1 time.
Reduced MIQP has 1508 rows, 1493 columns, and 4456 nonzeros.
Reduced MIQP has 408 binaries, 0 generals, 0 SOSs, and 0 indicators.
Reduced MIQP objective Q matrix has 104 nonzeros.
Presolve time = 0.00 sec. (1.90 ticks)
Represolve time = 0.03 sec. (7.40 ticks)
Number of nonzeros in lower triangle of Q = 24
Using Approximate Minimum Degree ordering
Total time for automatic ordering = 0.00 sec. (0.00 ticks)
Summary statistics for factor of Q:
  Rows in Factor            = 56
  Integer space required    = 56
  Total non-zeros in factor = 80
  Total FP ops to factor    = 128
Tried aggregator 1 time.
Aggregator did 221 substitutions.
Number of nonzeros in lower triangle of Q = 24
Using Approximate Minimum Degree ordering
Total time for automatic ordering = 0.00 sec. (0.00 ticks)
Summary statistics for factor of Q:
  Rows in Factor            = 56
  Integer space required    = 56
  Total non-zeros in factor = 80
  Total FP ops to factor    = 128
Reduced QP has 1637 rows, 1272 columns, and 5260 nonzeros.
Reduced QP objective Q matrix has 104 nonzeros.
Presolve time = 0.01 sec. (1.37 ticks)
Tried aggregator 1 time.
QP Presolve eliminated 24 rows and 24 columns.
QP Presolve added 0 rows and 56 columns.
Reduced QP has 1669 rows, 1304 columns, and 5348 nonzeros.
Reduced QP objective Q matrix has 32 nonzeros.
Presolve time = 0.00 sec. (0.78 ticks)
Parallel mode: none, using 1 thread for barrier

***NOTE: Found 7 dense columns.

Number of nonzeros in lower triangle of A*A' = 10149
Using Approximate Minimum Degree ordering
Total time for automatic ordering = 0.00 sec. (1.05 ticks)
Summary statistics for Cholesky factor:
  Rows in Factor            = 1676
  Integer space required    = 5372
  Total non-zeros in factor = 29633
  Total FP ops to factor    = 695063
 Itn      Primal Obj        Dual Obj  Prim Inf Upper Inf  Dual Inf          
   0   3.7323981e+06   3.8114182e+11  6.84e+05  3.78e+05  1.34e+06
   1   5.1137047e+06   3.0999258e+11  9.51e+05  6.57e+05  1.09e+06
   2   4.3299978e+06   2.8718195e+11  1.48e+06  1.08e+06  1.01e+06
   3   2.7918254e+06   2.1639669e+11  1.11e+06  8.10e+05  7.59e+05
   4   7.4299491e+05   1.2274610e+11  6.27e+05  4.57e+05  4.28e+05
   5  -3.6837244e+05   8.9110696e+10  4.50e+05  3.28e+05  3.08e+05
   6  -1.4057705e+06   2.8056375e+10  1.37e+05  1.00e+05  9.37e+04
   7  -1.2987586e+06   6.7759372e+09  3.08e+04  2.25e+04  2.11e+04
   8  -1.2117746e+06   1.3379218e+09  5.55e+03  4.05e+03  3.79e+03
   9  -8.3543341e+05   1.1475989e+08  4.25e+02  3.10e+02  2.90e+02
  10  -4.4263234e+05   8.1618794e+07  2.35e+02  1.71e+02  1.61e+02
  11  -6.9287468e+02   6.1108159e+06  1.38e+01  1.01e+01  9.46e+00
  12   1.1332102e+05   1.4062734e+06  1.18e+00  8.61e-01  8.07e-01
  13   1.4614150e+05   7.4697599e+05  4.59e-01  3.35e-01  3.14e-01
  14   1.5813089e+05   6.6042250e+05  1.38e-01  1.01e-01  9.43e-02
  15   1.8461762e+05   3.6222877e+05  4.69e-02  3.42e-02  3.20e-02
  16   1.9428407e+05   2.9521273e+05  1.88e-02  1.37e-02  1.29e-02
  17   2.0261683e+05   2.5057663e+05  7.35e-03  5.36e-03  5.02e-03
  18   2.0366030e+05   2.3905801e+05  4.00e-03  2.92e-03  2.74e-03
  19   2.0689682e+05   2.1674178e+05  6.17e-04  4.50e-04  4.21e-04
  20   2.0775492e+05   2.0998289e+05  9.01e-05  6.57e-05  6.15e-05
  21   2.0796751e+05   2.0832318e+05  1.47e-05  1.04e-05  9.75e-06
  22   2.0800346e+05   2.0803938e+05  1.82e-06  1.04e-06  9.77e-07
  23   2.0800914e+05   2.0801438e+05  4.80e-07  1.54e-07  1.42e-07
  24   2.0801017e+05   2.0801069e+05  1.87e-07  2.30e-08  1.41e-08
  25   2.0801027e+05   2.0801034e+05  1.57e-07  1.11e-08  1.90e-09
  26   2.0801028e+05   2.0801029e+05  1.56e-07  9.07e-09  2.37e-10
  27   2.0801028e+05   2.0801028e+05  1.79e-07  1.12e-08  6.74e-12
  28   2.0801028e+05   2.0801028e+05  1.89e-07  8.89e-09  5.41e-12
Barrier time = 0.13 sec. (44.91 ticks)

Total time on 1 threads = 0.14 sec. (46.29 ticks)
Barrier time = 0.13 sec. (44.93 ticks)

QP crossover.
  Primal and Dual:  Fixing 547 variables.
  Primal:  Pushed 312, exchanged 183.
  Dual  :  Pushed 50, exchanged 163.
Total crossover time = 0.02 sec. (16.92 ticks)

Total time on 1 threads = 0.17 sec. (63.39 ticks)
   1182     0   208010.2816    88   206095.1157     Cuts: 225    27182    0.93%
   1182     0   208010.2816    88   206095.1157     Cuts: 130    27337    0.93%
   1182     0   208010.2816    88   206095.1157     Cuts: 114    27439    0.93%
   1182     0   208010.2815    88   206095.1157     Cuts: 119    27511    0.93%
   1182     0   208010.2815    88   206095.1157      Cuts: 38    27553    0.93%
   1182     2   208010.2815    77   206095.1157   208009.6580    27606    0.93%
*  1183+    1                       206129.2025   208009.6580             0.91%
Found incumbent of value 206129.202460 after 9.95 sec. (5327.48 ticks)
   1209    20   208009.6343    68   206129.2025   208009.6580    28302    0.91%
                                                     Cuts: 33                  
   1331    83   208009.6758    69   206129.2025   208009.6580    29872    0.91%
*  1412+  143                       206245.2213   208009.6580             0.86%
Found incumbent of value 206245.221311 after 13.05 sec. (7494.82 ticks)
*  1512+   37                       207948.7718   208009.6343             0.03%
Found incumbent of value 207948.771842 after 14.06 sec. (8103.74 ticks)

Clique cuts applied:  8
Cover cuts applied:  1
Implied bound cuts applied:  29
Flow cuts applied:  64
Mixed integer rounding cuts applied:  23
Gomory fractional cuts applied:  25

Root node processing (before b&c):
  Real time             =    0.59 sec. (275.75 ticks)
Sequential b&c:
  Real time             =   13.48 sec. (7830.62 ticks)
                          ------------
Total (root+branch&cut) =   14.08 sec. (8106.37 ticks)
MIQP status(102): integer optimal, tolerance
Cplex Time: 14.08sec (det. 8106.37 ticks)
Fixing integer variables, and solving final QP..
Version identifier: 12.10.0.0 | 2019-11-26 | 843d4de2ae
CPXPARAM_Advance                                 2
CPXPARAM_Threads                                 1
CPXPARAM_Parallel                                1
CPXPARAM_MIP_Display                             4
CPXPARAM_Simplex_Limits_Iterations               2000000000
CPXPARAM_MIP_Limits_Nodes                        25000000
CPXPARAM_TimeLimit                               40000
CPXPARAM_Tune_TimeLimit                          8000
CPXPARAM_MIP_Tolerances_AbsMIPGap                0
CPXPARAM_MIP_Tolerances_MIPGap                   0.0050000000000000001
CPXPARAM_WorkDir                                 "C:\Users\a.eicke\Documents\Locational-investment-signals\Three node models\225a\"
Number of nonzeros in lower triangle of Q = 24
Using Approximate Minimum Degree ordering
Total time for automatic ordering = 0.00 sec. (0.00 ticks)
Summary statistics for factor of Q:
  Rows in Factor            = 56
  Integer space required    = 56
  Total non-zeros in factor = 80
  Total FP ops to factor    = 128
Tried aggregator 1 time.
QP Presolve eliminated 1790 rows and 1266 columns.
QP Presolve added 0 rows and 56 columns.
Aggregator did 222 substitutions.
Reduced QP has 383 rows, 349 columns, and 1261 nonzeros.
Reduced QP objective Q matrix has 32 nonzeros.
Presolve time = 0.00 sec. (1.93 ticks)
Parallel mode: none, using 1 thread for barrier

***NOTE: Found 9 dense columns.

Number of nonzeros in lower triangle of A*A' = 660
Using Approximate Minimum Degree ordering
Total time for automatic ordering = 0.00 sec. (0.05 ticks)
Summary statistics for Cholesky factor:
  Rows in Factor            = 392
  Integer space required    = 785
  Total non-zeros in factor = 3832
  Total FP ops to factor    = 48122
 Itn      Primal Obj        Dual Obj  Prim Inf Upper Inf  Dual Inf          
   0   4.2481015e+04   2.4461915e+07  3.43e+03  6.71e+01  3.50e+05
   1   1.1333643e+05   1.2541853e+07  1.64e+03  3.21e+01  1.67e+05
   2   1.6249518e+05   8.7251665e+06  7.72e+02  1.51e+01  7.88e+04
   3   1.6484401e+05   2.0031493e+06  1.35e+02  2.81e+00  1.38e+04
   4   1.7910776e+05   5.1630870e+05  2.17e+01  4.73e-01  2.20e+03
   5   1.9623912e+05   2.5378466e+05  3.08e+00  6.73e-02  3.22e+02
   6   2.0446186e+05   2.2045119e+05  6.76e-01  1.48e-02  7.10e+01
   7   2.0732288e+05   2.1005665e+05  4.89e-02  1.07e-03  5.11e+00
   8   2.0786910e+05   2.0822565e+05  2.85e-03  6.23e-05  2.98e-01
   9   2.0794173e+05   2.0797213e+05  2.38e-04  5.20e-06  2.49e-02
  10   2.0794863e+05   2.0794912e+05  2.70e-06  5.90e-08  2.82e-04
  11   2.0794876e+05   2.0794878e+05  1.88e-08  3.77e-10  1.80e-06
  12   2.0794876e+05   2.0793037e+05  9.81e-06  3.73e-10  2.85e-01
  13   2.0794878e+05   2.0794870e+05  1.85e-04  2.20e-12  1.06e-03
  14   2.0794884e+05   2.0794877e+05  2.68e-03  7.77e-13  7.07e-07
  *    2.0794876e+05   2.0794878e+05  1.88e-08  3.77e-10  1.80e-06
Barrier time = 0.00 sec. (6.26 ticks)

Total time on 1 threads = 0.00 sec. (6.26 ticks)
QP status(6): non-optimal
Cplex Time: 0.00sec (det. 6.26 ticks)
Final solve did not return an optimal solution.
Returning a primal only solution to GAMS (marginals all set to NA).

Solution satisfies tolerances.

MIP Solution:       207948.771842    (33476 iterations, 1512 nodes)
Best possible:      208009.634348
Absolute gap:           60.862505
Relative gap:            0.000293

--- Restarting execution
--- zonal_with_locational_instrument.gms(289) 2 Mb
--- Reading solution for model LOCI
***
*** Solver did not provide marginals for model LOCI
***
--- Executing after solve: elapsed 0:00:14.351
--- zonal_with_locational_instrument.gms(316) 3 Mb
--- GDX File C:\Users\a.eicke\Documents\Locational-investment-signals\Three node models\Output/with_instrument.gdx
*** Status: Normal completion
--- Job zonal_with_locational_instrument.gms Stop 12/21/21 20:08:46 elapsed 0:00:14.370
